Minimize
	value: tt

Subject to
tt + 1000 s_1_1 > 0.0
tt - t_1_1 - 1000.000000 s_1_1  > -996.764756
tt + 1000 s_2_1 > 0.0
tt - t_2_1 - 1000.000000 s_2_1  > -990.208681
tt + 1000 s_1_2 > 0.0
tt - t_1_2 - 1000.439541 s_1_2  + 0.439541 s_1_7  > -997.417678
tt + 1000 s_2_2 > 0.0
tt - t_2_2 - 1000.574820 s_2_2  + 0.574820 s_2_7  > -991.143429
tt + 1000 s_1_3 > 0.0
tt - t_1_3 - 1000.439541 s_1_3  + 0.439541 s_1_7  > -997.901933
tt + 1000 s_2_3 > 0.0
tt - t_2_3 - 1000.574820 s_2_3  + 0.574820 s_2_7  > -989.393735
tt + 1000 s_1_4 > 0.0
tt - t_1_4 - 1000.725788 s_1_4  + 0.439541 s_1_7  + 0.286247 s_1_3  > -998.930100
tt + 1000 s_2_4 > 0.0
tt - t_2_4 - 1000.872426 s_2_4  + 0.574820 s_2_7  + 0.297606 s_2_3  > -993.544351
tt + 1000 s_1_5 > 0.0
tt - t_1_5 - 1000.439541 s_1_5  + 0.439541 s_1_7  > -997.507378
tt + 1000 s_2_5 > 0.0
tt - t_2_5 - 1000.574820 s_2_5  + 0.574820 s_2_7  > -992.095786
tt + 1000 s_1_6 > 0.0
tt - t_1_6 - 1001.431235 s_1_6  + 0.286247 s_1_2  + 0.286247 s_1_5  + 0.286247 s_1_1  + 0.286247 s_1_4  + 0.286247 s_1_3  > -999.009900
tt + 1000 s_2_6 > 0.0
tt - t_2_6 - 1001.488028 s_2_6  + 0.297606 s_2_2  + 0.297606 s_2_5  + 0.297606 s_2_1  + 0.297606 s_2_4  + 0.297606 s_2_3  > -993.887600
tt + 1000 s_1_7 > 0.0
tt - t_1_7 - 1000.000000 s_1_7  > -997.785667
tt + 1000 s_2_7 > 0.0
tt - t_2_7 - 1000.000000 s_2_7  > -995.453933
s_1_1 + s_2_1 = 1
s_1_2 + s_2_2 = 1
s_1_3 + s_2_3 = 1
s_1_4 + s_2_4 = 1
s_1_5 + s_2_5 = 1
s_1_6 + s_2_6 = 1
s_1_7 + s_2_7 = 1
s_1_1 + s_1_2 + 1000 r_1_1_2 >= 2
- s_1_1 - s_1_2 - 1000 r_1_1_2 >= -1001
t_1_1 - t_1_2 - 1000.000000 u_1_1_2 - 0.439541 s_1_2  + 0.439541 s_1_7  + 2000.000000 r_1_1_2 > -997.417678
s_2_1 + s_2_2 + 1000 r_2_1_2 >= 2
- s_2_1 - s_2_2 - 1000 r_2_1_2 >= -1001
t_2_1 - t_2_2 - 1000.000000 u_2_1_2 - 0.574820 s_2_2  + 0.574820 s_2_7  + 2000.000000 r_2_1_2 > -991.143429
s_1_1 + s_1_3 + 1000 r_1_1_3 >= 2
- s_1_1 - s_1_3 - 1000 r_1_1_3 >= -1001
t_1_1 - t_1_3 - 1000.000000 u_1_1_3 - 0.439541 s_1_3  + 0.439541 s_1_7  + 2000.000000 r_1_1_3 > -997.901933
s_2_1 + s_2_3 + 1000 r_2_1_3 >= 2
- s_2_1 - s_2_3 - 1000 r_2_1_3 >= -1001
t_2_1 - t_2_3 - 1000.000000 u_2_1_3 - 0.574820 s_2_3  + 0.574820 s_2_7  + 2000.000000 r_2_1_3 > -989.393735
s_1_1 + s_1_4 + 1000 r_1_1_4 >= 2
- s_1_1 - s_1_4 - 1000 r_1_1_4 >= -1001
t_1_1 - t_1_4 - 1000.000000 u_1_1_4 - 0.725788 s_1_4  + 0.439541 s_1_7  + 0.286247 s_1_3  + 2000.000000 r_1_1_4 > -998.930100
s_2_1 + s_2_4 + 1000 r_2_1_4 >= 2
- s_2_1 - s_2_4 - 1000 r_2_1_4 >= -1001
t_2_1 - t_2_4 - 1000.000000 u_2_1_4 - 0.872426 s_2_4  + 0.574820 s_2_7  + 0.297606 s_2_3  + 2000.000000 r_2_1_4 > -993.544351
s_1_1 + s_1_5 + 1000 r_1_1_5 >= 2
- s_1_1 - s_1_5 - 1000 r_1_1_5 >= -1001
t_1_1 - t_1_5 - 1000.000000 u_1_1_5 - 0.439541 s_1_5  + 0.439541 s_1_7  + 2000.000000 r_1_1_5 > -997.507378
s_2_1 + s_2_5 + 1000 r_2_1_5 >= 2
- s_2_1 - s_2_5 - 1000 r_2_1_5 >= -1001
t_2_1 - t_2_5 - 1000.000000 u_2_1_5 - 0.574820 s_2_5  + 0.574820 s_2_7  + 2000.000000 r_2_1_5 > -992.095786
t_1_6 - t_1_1 - 1000.000000 s_1_1  > -996.764756
t_1_6 - t_2_1 - 1000.000000 s_2_1  > -990.208681
t_2_6 - t_1_1 - 1000.000000 s_1_1  > -996.764756
t_2_6 - t_2_1 - 1000.000000 s_2_1  > -990.208681
s_1_1 + s_1_7 + 1000 r_1_1_7 >= 2
- s_1_1 - s_1_7 - 1000 r_1_1_7 >= -1001
t_1_1 - t_1_7 - 1000.000000 u_1_1_7 - 0.000000 s_1_7  + 2000.000000 r_1_1_7 > -997.785667
s_2_1 + s_2_7 + 1000 r_2_1_7 >= 2
- s_2_1 - s_2_7 - 1000 r_2_1_7 >= -1001
t_2_1 - t_2_7 - 1000.000000 u_2_1_7 - 0.000000 s_2_7  + 2000.000000 r_2_1_7 > -995.453933
s_1_2 + s_1_1 + 1000 r_1_1_2 >= 2
- s_1_2 - s_1_1 - 1000 r_1_1_2 >= -1001
t_1_2 - t_1_1 + 1000.000000 u_1_1_2 - 0.000000 s_1_1  + 2000.000000 r_1_1_2 > 3.235244
s_2_2 + s_2_1 + 1000 r_2_1_2 >= 2
- s_2_2 - s_2_1 - 1000 r_2_1_2 >= -1001
t_2_2 - t_2_1 + 1000.000000 u_2_1_2 - 0.000000 s_2_1  + 2000.000000 r_2_1_2 > 9.791319
s_1_2 + s_1_3 + 1000 r_1_2_3 >= 2
- s_1_2 - s_1_3 - 1000 r_1_2_3 >= -1001
t_1_2 - t_1_3 - 1000.000000 u_1_2_3 - 0.439541 s_1_3  + 0.439541 s_1_7  + 2000.000000 r_1_2_3 > -997.901933
s_2_2 + s_2_3 + 1000 r_2_2_3 >= 2
- s_2_2 - s_2_3 - 1000 r_2_2_3 >= -1001
t_2_2 - t_2_3 - 1000.000000 u_2_2_3 - 0.574820 s_2_3  + 0.574820 s_2_7  + 2000.000000 r_2_2_3 > -989.393735
s_1_2 + s_1_4 + 1000 r_1_2_4 >= 2
- s_1_2 - s_1_4 - 1000 r_1_2_4 >= -1001
t_1_2 - t_1_4 - 1000.000000 u_1_2_4 - 0.725788 s_1_4  + 0.439541 s_1_7  + 0.286247 s_1_3  + 2000.000000 r_1_2_4 > -998.930100
s_2_2 + s_2_4 + 1000 r_2_2_4 >= 2
- s_2_2 - s_2_4 - 1000 r_2_2_4 >= -1001
t_2_2 - t_2_4 - 1000.000000 u_2_2_4 - 0.872426 s_2_4  + 0.574820 s_2_7  + 0.297606 s_2_3  + 2000.000000 r_2_2_4 > -993.544351
s_1_2 + s_1_5 + 1000 r_1_2_5 >= 2
- s_1_2 - s_1_5 - 1000 r_1_2_5 >= -1001
t_1_2 - t_1_5 - 1000.000000 u_1_2_5 - 0.439541 s_1_5  + 0.439541 s_1_7  + 2000.000000 r_1_2_5 > -997.507378
s_2_2 + s_2_5 + 1000 r_2_2_5 >= 2
- s_2_2 - s_2_5 - 1000 r_2_2_5 >= -1001
t_2_2 - t_2_5 - 1000.000000 u_2_2_5 - 0.574820 s_2_5  + 0.574820 s_2_7  + 2000.000000 r_2_2_5 > -992.095786
t_1_6 - t_1_2 - 1000.439541 s_1_2  + 0.439541 s_1_7  > -997.417678
t_1_6 - t_2_2 - 1000.574820 s_2_2  + 0.574820 s_2_7  > -991.143429
t_2_6 - t_1_2 - 1000.439541 s_1_2  + 0.439541 s_1_7  > -997.417678
t_2_6 - t_2_2 - 1000.574820 s_2_2  + 0.574820 s_2_7  > -991.143429
t_1_2 - t_1_7 - 1000.000000 s_1_7  > -997.785667
t_1_2 - t_2_7 - 1000.000000 s_2_7  > -995.453933
t_2_2 - t_1_7 - 1000.000000 s_1_7  > -997.785667
t_2_2 - t_2_7 - 1000.000000 s_2_7  > -995.453933
s_1_3 + s_1_1 + 1000 r_1_1_3 >= 2
- s_1_3 - s_1_1 - 1000 r_1_1_3 >= -1001
t_1_3 - t_1_1 + 1000.000000 u_1_1_3 - 0.000000 s_1_1  + 2000.000000 r_1_1_3 > 3.235244
s_2_3 + s_2_1 + 1000 r_2_1_3 >= 2
- s_2_3 - s_2_1 - 1000 r_2_1_3 >= -1001
t_2_3 - t_2_1 + 1000.000000 u_2_1_3 - 0.000000 s_2_1  + 2000.000000 r_2_1_3 > 9.791319
s_1_3 + s_1_2 + 1000 r_1_2_3 >= 2
- s_1_3 - s_1_2 - 1000 r_1_2_3 >= -1001
t_1_3 - t_1_2 + 1000.000000 u_1_2_3 - 0.439541 s_1_2  + 0.439541 s_1_7  + 2000.000000 r_1_2_3 > 2.582322
s_2_3 + s_2_2 + 1000 r_2_2_3 >= 2
- s_2_3 - s_2_2 - 1000 r_2_2_3 >= -1001
t_2_3 - t_2_2 + 1000.000000 u_2_2_3 - 0.574820 s_2_2  + 0.574820 s_2_7  + 2000.000000 r_2_2_3 > 8.856571
t_1_4 - t_1_3 - 1000.439541 s_1_3  + 0.439541 s_1_7  > -997.901933
t_1_4 - t_2_3 - 1000.574820 s_2_3  + 0.574820 s_2_7  > -989.393735
t_2_4 - t_1_3 - 1000.439541 s_1_3  + 0.439541 s_1_7  > -997.901933
t_2_4 - t_2_3 - 1000.574820 s_2_3  + 0.574820 s_2_7  > -989.393735
s_1_3 + s_1_5 + 1000 r_1_3_5 >= 2
- s_1_3 - s_1_5 - 1000 r_1_3_5 >= -1001
t_1_3 - t_1_5 - 1000.000000 u_1_3_5 - 0.439541 s_1_5  + 0.439541 s_1_7  + 2000.000000 r_1_3_5 > -997.507378
s_2_3 + s_2_5 + 1000 r_2_3_5 >= 2
- s_2_3 - s_2_5 - 1000 r_2_3_5 >= -1001
t_2_3 - t_2_5 - 1000.000000 u_2_3_5 - 0.574820 s_2_5  + 0.574820 s_2_7  + 2000.000000 r_2_3_5 > -992.095786
t_1_6 - t_1_3 - 1000.439541 s_1_3  + 0.439541 s_1_7  > -997.901933
t_1_6 - t_2_3 - 1000.574820 s_2_3  + 0.574820 s_2_7  > -989.393735
t_2_6 - t_1_3 - 1000.439541 s_1_3  + 0.439541 s_1_7  > -997.901933
t_2_6 - t_2_3 - 1000.574820 s_2_3  + 0.574820 s_2_7  > -989.393735
t_1_3 - t_1_7 - 1000.000000 s_1_7  > -997.785667
t_1_3 - t_2_7 - 1000.000000 s_2_7  > -995.453933
t_2_3 - t_1_7 - 1000.000000 s_1_7  > -997.785667
t_2_3 - t_2_7 - 1000.000000 s_2_7  > -995.453933
s_1_4 + s_1_1 + 1000 r_1_1_4 >= 2
- s_1_4 - s_1_1 - 1000 r_1_1_4 >= -1001
t_1_4 - t_1_1 + 1000.000000 u_1_1_4 - 0.000000 s_1_1  + 2000.000000 r_1_1_4 > 3.235244
s_2_4 + s_2_1 + 1000 r_2_1_4 >= 2
- s_2_4 - s_2_1 - 1000 r_2_1_4 >= -1001
t_2_4 - t_2_1 + 1000.000000 u_2_1_4 - 0.000000 s_2_1  + 2000.000000 r_2_1_4 > 9.791319
s_1_4 + s_1_2 + 1000 r_1_2_4 >= 2
- s_1_4 - s_1_2 - 1000 r_1_2_4 >= -1001
t_1_4 - t_1_2 + 1000.000000 u_1_2_4 - 0.439541 s_1_2  + 0.439541 s_1_7  + 2000.000000 r_1_2_4 > 2.582322
s_2_4 + s_2_2 + 1000 r_2_2_4 >= 2
- s_2_4 - s_2_2 - 1000 r_2_2_4 >= -1001
t_2_4 - t_2_2 + 1000.000000 u_2_2_4 - 0.574820 s_2_2  + 0.574820 s_2_7  + 2000.000000 r_2_2_4 > 8.856571
s_1_4 + s_1_5 + 1000 r_1_4_5 >= 2
- s_1_4 - s_1_5 - 1000 r_1_4_5 >= -1001
t_1_4 - t_1_5 - 1000.000000 u_1_4_5 - 0.439541 s_1_5  + 0.439541 s_1_7  + 2000.000000 r_1_4_5 > -997.507378
s_2_4 + s_2_5 + 1000 r_2_4_5 >= 2
- s_2_4 - s_2_5 - 1000 r_2_4_5 >= -1001
t_2_4 - t_2_5 - 1000.000000 u_2_4_5 - 0.574820 s_2_5  + 0.574820 s_2_7  + 2000.000000 r_2_4_5 > -992.095786
t_1_6 - t_1_4 - 1000.725788 s_1_4  + 0.439541 s_1_7  + 0.286247 s_1_3  > -998.930100
t_1_6 - t_2_4 - 1000.872426 s_2_4  + 0.574820 s_2_7  + 0.297606 s_2_3  > -993.544351
t_2_6 - t_1_4 - 1000.725788 s_1_4  + 0.439541 s_1_7  + 0.286247 s_1_3  > -998.930100
t_2_6 - t_2_4 - 1000.872426 s_2_4  + 0.574820 s_2_7  + 0.297606 s_2_3  > -993.544351
t_1_4 - t_1_7 - 1000.000000 s_1_7  > -997.785667
t_1_4 - t_2_7 - 1000.000000 s_2_7  > -995.453933
t_2_4 - t_1_7 - 1000.000000 s_1_7  > -997.785667
t_2_4 - t_2_7 - 1000.000000 s_2_7  > -995.453933
s_1_5 + s_1_1 + 1000 r_1_1_5 >= 2
- s_1_5 - s_1_1 - 1000 r_1_1_5 >= -1001
t_1_5 - t_1_1 + 1000.000000 u_1_1_5 - 0.000000 s_1_1  + 2000.000000 r_1_1_5 > 3.235244
s_2_5 + s_2_1 + 1000 r_2_1_5 >= 2
- s_2_5 - s_2_1 - 1000 r_2_1_5 >= -1001
t_2_5 - t_2_1 + 1000.000000 u_2_1_5 - 0.000000 s_2_1  + 2000.000000 r_2_1_5 > 9.791319
s_1_5 + s_1_2 + 1000 r_1_2_5 >= 2
- s_1_5 - s_1_2 - 1000 r_1_2_5 >= -1001
t_1_5 - t_1_2 + 1000.000000 u_1_2_5 - 0.439541 s_1_2  + 0.439541 s_1_7  + 2000.000000 r_1_2_5 > 2.582322
s_2_5 + s_2_2 + 1000 r_2_2_5 >= 2
- s_2_5 - s_2_2 - 1000 r_2_2_5 >= -1001
t_2_5 - t_2_2 + 1000.000000 u_2_2_5 - 0.574820 s_2_2  + 0.574820 s_2_7  + 2000.000000 r_2_2_5 > 8.856571
s_1_5 + s_1_3 + 1000 r_1_3_5 >= 2
- s_1_5 - s_1_3 - 1000 r_1_3_5 >= -1001
t_1_5 - t_1_3 + 1000.000000 u_1_3_5 - 0.439541 s_1_3  + 0.439541 s_1_7  + 2000.000000 r_1_3_5 > 2.098067
s_2_5 + s_2_3 + 1000 r_2_3_5 >= 2
- s_2_5 - s_2_3 - 1000 r_2_3_5 >= -1001
t_2_5 - t_2_3 + 1000.000000 u_2_3_5 - 0.574820 s_2_3  + 0.574820 s_2_7  + 2000.000000 r_2_3_5 > 10.606265
s_1_5 + s_1_4 + 1000 r_1_4_5 >= 2
- s_1_5 - s_1_4 - 1000 r_1_4_5 >= -1001
t_1_5 - t_1_4 + 1000.000000 u_1_4_5 - 0.725788 s_1_4  + 0.439541 s_1_7  + 0.286247 s_1_3  + 2000.000000 r_1_4_5 > 1.069900
s_2_5 + s_2_4 + 1000 r_2_4_5 >= 2
- s_2_5 - s_2_4 - 1000 r_2_4_5 >= -1001
t_2_5 - t_2_4 + 1000.000000 u_2_4_5 - 0.872426 s_2_4  + 0.574820 s_2_7  + 0.297606 s_2_3  + 2000.000000 r_2_4_5 > 6.455649
t_1_6 - t_1_5 - 1000.439541 s_1_5  + 0.439541 s_1_7  > -997.507378
t_1_6 - t_2_5 - 1000.574820 s_2_5  + 0.574820 s_2_7  > -992.095786
t_2_6 - t_1_5 - 1000.439541 s_1_5  + 0.439541 s_1_7  > -997.507378
t_2_6 - t_2_5 - 1000.574820 s_2_5  + 0.574820 s_2_7  > -992.095786
t_1_5 - t_1_7 - 1000.000000 s_1_7  > -997.785667
t_1_5 - t_2_7 - 1000.000000 s_2_7  > -995.453933
t_2_5 - t_1_7 - 1000.000000 s_1_7  > -997.785667
t_2_5 - t_2_7 - 1000.000000 s_2_7  > -995.453933
s_1_7 + s_1_1 + 1000 r_1_1_7 >= 2
- s_1_7 - s_1_1 - 1000 r_1_1_7 >= -1001
t_1_7 - t_1_1 + 1000.000000 u_1_1_7 - 0.000000 s_1_1  + 2000.000000 r_1_1_7 > 3.235244
s_2_7 + s_2_1 + 1000 r_2_1_7 >= 2
- s_2_7 - s_2_1 - 1000 r_2_1_7 >= -1001
t_2_7 - t_2_1 + 1000.000000 u_2_1_7 - 0.000000 s_2_1  + 2000.000000 r_2_1_7 > 9.791319
Binary
s_1_1
s_2_1
s_1_2
s_2_2
s_1_3
s_2_3
s_1_4
s_2_4
s_1_5
s_2_5
s_1_6
s_2_6
s_1_7
s_2_7
u_1_1_2
r_1_1_2
u_2_1_2
r_2_1_2
u_1_1_3
r_1_1_3
u_2_1_3
r_2_1_3
u_1_1_4
r_1_1_4
u_2_1_4
r_2_1_4
u_1_1_5
r_1_1_5
u_2_1_5
r_2_1_5
u_1_1_7
r_1_1_7
u_2_1_7
r_2_1_7
u_1_2_3
r_1_2_3
u_2_2_3
r_2_2_3
u_1_2_4
r_1_2_4
u_2_2_4
r_2_2_4
u_1_2_5
r_1_2_5
u_2_2_5
r_2_2_5
u_1_3_5
r_1_3_5
u_2_3_5
r_2_3_5
u_1_4_5
r_1_4_5
u_2_4_5
r_2_4_5

End
